rc1_10_5

VEHICLE
NUMBER   CAPACITY
250     200

CUSTOMER
CUST NO. XCOORD.  YCOORD.  DEMAND  READY TIME DUE DATE  SERVICE TIME

0   250    250     0     0    1821     0
227 451 305 13 208 262 10
600 497 266 25 743 783 10
520 499 316 18 573 700 10
577 471 368 19 401 486 10
843 487 320 21 818 927 10
482 491 369 28 718 771 10
133 460 328 13 224 290 10
912 489 338 17 1381 1443 10
491 453 318 30 354 423 10
718 478 300 12 897 912 10
918 489 274 31 529 569 10
928 490 286 29 500 575 10
649 468 352 9 755 812 10
184 492 335 10 818 868 10
